
  22   10
  10   10   10   10   10   10   10   10   10   10

   0   0   0   0   0   0   0   0   0   0   0   8 2 4 16 17 18 19 20 21 
   5  10  10  10  10  10  10  10  10  10  10   4 15 14 10 3 
   4  10  10  10  10  10  10  10  10  10  10   3 12 11 5 
   1  10  10  10  10  10  10  10  10  10  10   3 13 10 6 
   3  10  10  10  10  10  10  10  10  10  10   2 9 6 
   4  10  10  10  10  10  10  10  10  10  10   1 7 
   6  10  10  10  10  10  10  10  10  10  10   1 8 
   3  10  10  10  10  10  10  10  10  10  10   1 22
   6  10  10  10  10  10  10  10  10  10  10   1 22
   1  10  10  10  10  10  10  10  10  10  10   1 22
   9  10  10  10  10  10  10  10  10  10  10   1 22
   4  10  10  10  10  10  10  10  10  10  10   1 22
   5  10  10  10  10  10  10  10  10  10  10   1 22
   1  10  10  10  10  10  10  10  10  10  10   1 22
   9  10  10  10  10  10  10  10  10  10  10   1 22
   8  10  10  10  10  10  10  10  10  10  10   1 22
   5  10  10  10  10  10  10  10  10  10  10   1 22
   2  10  10  10  10  10  10  10  10  10  10   1 22
   8  10  10  10  10  10  10  10  10  10  10   1 22
   4  10  10  10  10  10  10  10  10  10  10   1 22
   5  10  10  10  10  10  10  10  10  10  10   1 22
   0   0   0   0   0   0   0   0   0   0   0   0 
